
******************************************************************************
This program contains Ipopt, a library for large-scale nonlinear optimization.
 Ipopt is released as open source code under the Eclipse Public License (EPL).
         For more information visit http://projects.coin-or.org/Ipopt
******************************************************************************

This is Ipopt version 3.12.6, running with linear solver ma57.

Number of nonzeros in equality constraint Jacobian...:    27956
Number of nonzeros in inequality constraint Jacobian.:        0
Number of nonzeros in Lagrangian Hessian.............:    13978

Total number of variables............................:     5994
                     variables with only lower bounds:        0
                variables with lower and upper bounds:        0
                     variables with only upper bounds:        0
Total number of equality constraints.................:     3996
Total number of inequality constraints...............:        0
        inequality constraints with only lower bounds:        0
   inequality constraints with lower and upper bounds:        0
        inequality constraints with only upper bounds:        0

iter    objective    inf_pr   inf_du lg(mu)  ||d||  lg(rg) alpha_du alpha_pr  ls
   0  1.4050000e+02 0.00e+00 3.62e-01  -1.0 0.00e+00    -  0.00e+00 0.00e+00   0
   1  5.6641482e+00 7.97e-01 1.03e+00  -1.7 4.62e-01    -  1.00e+00 1.00e+00f  1
   2  2.0092587e+01 1.81e-01 1.72e+01  -1.7 2.37e-01   2.0 1.00e+00 1.00e+00h  1
   3  7.8515610e+01 3.42e-02 8.80e+00  -1.7 2.71e-01   1.5 1.00e+00 1.00e+00h  1
   4  7.1206044e+01 6.63e-04 2.50e+00  -1.7 2.81e-02   1.9 1.00e+00 1.00e+00f  1
   5  6.9047306e+01 9.74e-06 1.73e-01  -1.7 5.63e-03   1.5 1.00e+00 1.00e+00f  1
   6  6.4026260e+01 7.25e-05 1.41e-01  -2.5 1.42e-02   1.0 1.00e+00 1.00e+00f  1
   7  5.5875710e+01 3.53e-04 9.84e-02  -2.5 2.86e-02   0.5 1.00e+00 1.00e+00f  1
   8  4.7035747e+01 3.58e-03 3.50e-02  -2.5 1.09e-01    -  1.00e+00 1.00e+00f  1
   9  4.7602910e+01 8.69e-05 2.06e-03  -2.5 2.27e-02    -  1.00e+00 1.00e+00h  1
iter    objective    inf_pr   inf_du lg(mu)  ||d||  lg(rg) alpha_du alpha_pr  ls
  10  4.7603015e+01 6.10e-07 1.24e-05  -3.8 1.81e-03    -  1.00e+00 1.00e+00h  1
  11  4.7603027e+01 1.62e-11 4.40e-10  -8.6 1.10e-05    -  1.00e+00 1.00e+00h  1

Number of Iterations....: 11

                                   (scaled)                 (unscaled)
Objective...............:   4.7603027028553569e+01    4.7603027028553569e+01
Dual infeasibility......:   4.4005743493613636e-10    4.4005743493613636e-10
Constraint violation....:   1.6210584957709884e-11    1.6210584957709884e-11
Complementarity.........:   0.0000000000000000e+00    0.0000000000000000e+00
Overall NLP error.......:   4.4005743493613636e-10    4.4005743493613636e-10


Number of objective function evaluations             = 12
Number of objective gradient evaluations             = 12
Number of equality constraint evaluations            = 12
Number of inequality constraint evaluations          = 0
Number of equality constraint Jacobian evaluations   = 12
Number of inequality constraint Jacobian evaluations = 0
Number of Lagrangian Hessian evaluations             = 11
Total CPU secs in IPOPT (w/o function evaluations)   =      0.100
Total CPU secs in NLP function evaluations           =      0.043

EXIT: Optimal Solution Found.

************************ CUTEst statistics ************************


 Package used            :  IPOPT
 Problem                 :  DTOC1ND   
 # variables             =            5998
 # constraints           =            3996
 # objective functions   =        0.2500000E+02
 # objective gradients   =        0.1300000E+02
 # objective Hessians    =        0.1200000E+02
 # Hessian-vector prdct  =        0.0000000E+00
 # constraints functions =        0.2600000E+02
 # constraints gradients =        0.1400000E+02
 # constraints Hessians  =        0.1200000E+02
 Exit code               =               0
 Final f                 =   0.4760303E+02
 Set up time             =            0.22 seconds
 Solve time              =            0.22 seconds


******************************************************************

System Time =       0.1449999958 s.
